p cnf 964 2475
51 -2 -697 0
-51 2 0
-51 697 0
52 -51 -3 0
-52 51 0
-52 3 0
53 -5 -698 0
-53 5 0
-53 698 0
54 -53 -699 0
-54 53 0
-54 699 0
55 -700 -701 0
-55 700 0
-55 701 0
56 -702 -7 0
-56 702 0
-56 7 0
57 -56 -9 0
-57 56 0
-57 9 0
58 -703 -55 0
-58 703 0
-58 55 0
59 -704 -705 0
-59 704 0
-59 705 0
60 -59 -11 0
-60 59 0
-60 11 0
61 -706 -58 0
-61 706 0
-61 58 0
62 -13 -707 0
-62 13 0
-62 707 0
63 -62 -708 0
-63 62 0
-63 708 0
64 -709 -61 0
-64 709 0
-64 61 0
65 -710 -711 0
-65 710 0
-65 711 0
66 -65 -8 0
-66 65 0
-66 8 0
67 -712 -64 0
-67 712 0
-67 64 0
68 -18 -713 0
-68 18 0
-68 713 0
69 -68 -714 0
-69 68 0
-69 714 0
70 -715 -67 0
-70 715 0
-70 67 0
71 -716 -4 0
-71 716 0
-71 4 0
72 -71 -699 0
-72 71 0
-72 699 0
73 -717 -70 0
-73 717 0
-73 70 0
74 -716 -18 0
-74 716 0
-74 18 0
75 -74 -718 0
-75 74 0
-75 718 0
76 -719 -73 0
-76 719 0
-76 73 0
77 -720 -22 0
-77 720 0
-77 22 0
78 -77 -721 0
-78 77 0
-78 721 0
79 -722 -76 0
-79 722 0
-79 76 0
80 -723 -11 0
-80 723 0
-80 11 0
81 -80 -25 0
-81 80 0
-81 25 0
82 -724 -79 0
-82 724 0
-82 79 0
83 -725 -705 0
-83 725 0
-83 705 0
84 -83 -9 0
-84 83 0
-84 9 0
85 -726 -82 0
-85 726 0
-85 82 0
86 -28 -27 0
-86 28 0
-86 27 0
87 -86 -727 0
-87 86 0
-87 727 0
88 -728 -85 0
-88 728 0
-88 85 0
89 -729 -26 0
-89 729 0
-89 26 0
90 -89 -714 0
-90 89 0
-90 714 0
91 -730 -88 0
-91 730 0
-91 88 0
92 -731 -11 0
-92 731 0
-92 11 0
93 -92 -1 0
-93 92 0
-93 1 0
94 -732 -91 0
-94 732 0
-94 91 0
95 -31 -720 0
-95 31 0
-95 720 0
96 -95 -32 0
-96 95 0
-96 32 0
97 -733 -94 0
-97 733 0
-97 94 0
98 -18 -16 0
-98 18 0
-98 16 0
99 -98 -33 0
-99 98 0
-99 33 0
100 -734 -97 0
-100 734 0
-100 97 0
101 -735 -5 0
-101 735 0
-101 5 0
102 -101 -35 0
-102 101 0
-102 35 0
103 -736 -100 0
-103 736 0
-103 100 0
104 -36 -737 0
-104 36 0
-104 737 0
105 -104 -3 0
-105 104 0
-105 3 0
106 -738 -103 0
-106 738 0
-106 103 0
107 -739 -740 0
-107 739 0
-107 740 0
108 -107 -741 0
-108 107 0
-108 741 0
109 -742 -106 0
-109 742 0
-109 106 0
110 -39 -743 0
-110 39 0
-110 743 0
111 -110 -8 0
-111 110 0
-111 8 0
112 -744 -109 0
-112 744 0
-112 109 0
113 -745 -746 0
-113 745 0
-113 746 0
114 -113 -747 0
-114 113 0
-114 747 0
115 -748 -112 0
-115 748 0
-115 112 0
116 -36 -710 0
-116 36 0
-116 710 0
117 -116 -31 0
-117 116 0
-117 31 0
118 -749 -115 0
-118 749 0
-118 115 0
119 -41 -708 0
-119 41 0
-119 708 0
120 -119 -750 0
-120 119 0
-120 750 0
121 -751 -118 0
-121 751 0
-121 118 0
122 -30 -718 0
-122 30 0
-122 718 0
123 -122 -743 0
-123 122 0
-123 743 0
124 -752 -121 0
-124 752 0
-124 121 0
125 -753 -32 0
-125 753 0
-125 32 0
126 -125 -3 0
-126 125 0
-126 3 0
127 -754 -124 0
-127 754 0
-127 124 0
128 -43 -17 0
-128 43 0
-128 17 0
129 -128 -44 0
-129 128 0
-129 44 0
130 -755 -127 0
-130 755 0
-130 127 0
131 -729 -716 0
-131 729 0
-131 716 0
132 -131 -756 0
-132 131 0
-132 756 0
133 -757 -130 0
-133 757 0
-133 130 0
134 -34 -5 0
-134 34 0
-134 5 0
135 -134 -44 0
-135 134 0
-135 44 0
136 -758 -133 0
-136 758 0
-136 133 0
137 -711 -708 0
-137 711 0
-137 708 0
138 -137 -46 0
-138 137 0
-138 46 0
139 -759 -136 0
-139 759 0
-139 136 0
140 -760 -761 0
-140 760 0
-140 761 0
141 -140 -750 0
-141 140 0
-141 750 0
142 -762 -139 0
-142 762 0
-142 139 0
143 -26 -6 0
-143 26 0
-143 6 0
144 -143 -7 0
-144 143 0
-144 7 0
145 -763 -142 0
-145 763 0
-145 142 0
146 -721 -6 0
-146 721 0
-146 6 0
147 -146 -747 0
-147 146 0
-147 747 0
148 -764 -145 0
-148 764 0
-148 145 0
149 -765 -41 0
-149 765 0
-149 41 0
150 -149 -32 0
-150 149 0
-150 32 0
151 -766 -148 0
-151 766 0
-151 148 0
152 -739 -29 0
-152 739 0
-152 29 0
153 -152 -743 0
-153 152 0
-153 743 0
154 -767 -151 0
-154 767 0
-154 151 0
155 -22 -2 0
-155 22 0
-155 2 0
156 -155 -721 0
-156 155 0
-156 721 0
157 -768 -154 0
-157 768 0
-157 154 0
158 -739 -716 0
-158 739 0
-158 716 0
159 -158 -2 0
-159 158 0
-159 2 0
160 -769 -157 0
-160 769 0
-160 157 0
161 -48 -698 0
-161 48 0
-161 698 0
162 -161 -44 0
-162 161 0
-162 44 0
163 -770 -160 0
-163 770 0
-163 160 0
164 -47 -11 0
-164 47 0
-164 11 0
165 -164 -35 0
-165 164 0
-165 35 0
166 -771 -163 0
-166 771 0
-166 163 0
167 -37 -34 0
-167 37 0
-167 34 0
168 -167 -40 0
-168 167 0
-168 40 0
169 -772 -166 0
-169 772 0
-169 166 0
170 -34 -773 0
-170 34 0
-170 773 0
171 -170 -774 0
-171 170 0
-171 774 0
172 -775 -169 0
-172 775 0
-172 169 0
173 -37 -729 0
-173 37 0
-173 729 0
174 -173 -710 0
-174 173 0
-174 710 0
175 -776 -172 0
-175 776 0
-175 172 0
176 -37 -6 0
-176 37 0
-176 6 0
177 -176 -39 0
-177 176 0
-177 39 0
178 -777 -175 0
-178 777 0
-178 175 0
179 -756 -15 0
-179 756 0
-179 15 0
180 -179 -765 0
-180 179 0
-180 765 0
181 -778 -178 0
-181 778 0
-181 178 0
182 -756 -710 0
-182 756 0
-182 710 0
183 -182 -779 0
-183 182 0
-183 779 0
184 -780 -181 0
-184 780 0
-184 181 0
185 -779 -19 0
-185 779 0
-185 19 0
186 -185 -720 0
-186 185 0
-186 720 0
187 -781 -184 0
-187 781 0
-187 184 0
188 -48 -782 0
-188 48 0
-188 782 0
189 -188 -42 0
-189 188 0
-189 42 0
190 -783 -187 0
-190 783 0
-190 187 0
191 -43 -746 0
-191 43 0
-191 746 0
192 -191 -745 0
-192 191 0
-192 745 0
193 -784 -190 0
-193 784 0
-193 190 0
194 -28 -1 0
-194 28 0
-194 1 0
195 -194 -2 0
-195 194 0
-195 2 0
196 -785 -193 0
-196 785 0
-196 193 0
197 -37 -716 0
-197 37 0
-197 716 0
198 -197 -710 0
-198 197 0
-198 710 0
199 -786 -196 0
-199 786 0
-199 196 0
200 -787 -708 0
-200 787 0
-200 708 0
201 -200 -743 0
-201 200 0
-201 743 0
202 -788 -199 0
-202 788 0
-202 199 0
203 -774 -36 0
-203 774 0
-203 36 0
204 -203 -16 0
-204 203 0
-204 16 0
205 -789 -202 0
-205 789 0
-205 202 0
206 -43 -14 0
-206 43 0
-206 14 0
207 -206 -697 0
-207 206 0
-207 697 0
208 -790 -205 0
-208 790 0
-208 205 0
209 -725 -6 0
-209 725 0
-209 6 0
210 -209 -39 0
-210 209 0
-210 39 0
211 -791 -208 0
-211 791 0
-211 208 0
212 -42 -38 0
-212 42 0
-212 38 0
213 -212 -721 0
-213 212 0
-213 721 0
214 -792 -211 0
-214 792 0
-214 211 0
215 -720 -782 0
-215 720 0
-215 782 0
216 -215 -9 0
-216 215 0
-216 9 0
217 -793 -214 0
-217 793 0
-217 214 0
218 -48 -6 0
-218 48 0
-218 6 0
219 -218 -44 0
-219 218 0
-219 44 0
220 -794 -217 0
-220 794 0
-220 217 0
221 -735 -6 0
-221 735 0
-221 6 0
222 -221 -16 0
-222 221 0
-222 16 0
223 -795 -220 0
-223 795 0
-223 220 0
224 -796 -17 0
-224 796 0
-224 17 0
225 -224 -779 0
-225 224 0
-225 779 0
226 -797 -223 0
-226 797 0
-226 223 0
227 -24 -710 0
-227 24 0
-227 710 0
228 -227 -23 0
-228 227 0
-228 23 0
229 -798 -226 0
-229 798 0
-229 226 0
230 -735 -727 0
-230 735 0
-230 727 0
231 -230 -18 0
-231 230 0
-231 18 0
232 -799 -229 0
-232 799 0
-232 229 0
233 -45 -4 0
-233 45 0
-233 4 0
234 -233 -1 0
-234 233 0
-234 1 0
235 -800 -232 0
-235 800 0
-235 232 0
236 -34 -19 0
-236 34 0
-236 19 0
237 -236 -8 0
-237 236 0
-237 8 0
238 -801 -235 0
-238 801 0
-238 235 0
239 -796 -697 0
-239 796 0
-239 697 0
240 -239 -25 0
-240 239 0
-240 25 0
241 -802 -238 0
-241 802 0
-241 238 0
242 -49 -17 0
-242 49 0
-242 17 0
243 -242 -721 0
-243 242 0
-243 721 0
244 -803 -241 0
-244 803 0
-244 241 0
245 -43 -40 0
-245 43 0
-245 40 0
246 -245 -804 0
-246 245 0
-246 804 0
247 -805 -244 0
-247 805 0
-247 244 0
248 -708 -704 0
-248 708 0
-248 704 0
249 -248 -25 0
-249 248 0
-249 25 0
250 -806 -247 0
-250 806 0
-250 247 0
251 -43 -787 0
-251 43 0
-251 787 0
252 -251 -23 0
-252 251 0
-252 23 0
253 -807 -250 0
-253 807 0
-253 250 0
254 -6 -705 0
-254 6 0
-254 705 0
255 -254 -808 0
-255 254 0
-255 808 0
256 -809 -253 0
-256 809 0
-256 253 0
257 -704 -6 0
-257 704 0
-257 6 0
258 -257 -765 0
-258 257 0
-258 765 0
259 -810 -256 0
-259 810 0
-259 256 0
260 -723 -5 0
-260 723 0
-260 5 0
261 -260 -765 0
-261 260 0
-261 765 0
262 -811 -259 0
-262 811 0
-262 259 0
263 -723 -727 0
-263 723 0
-263 727 0
264 -263 -741 0
-264 263 0
-264 741 0
265 -812 -262 0
-265 812 0
-265 262 0
266 -49 -6 0
-266 49 0
-266 6 0
267 -266 -11 0
-267 266 0
-267 11 0
268 -813 -265 0
-268 813 0
-268 265 0
269 -37 -14 0
-269 37 0
-269 14 0
270 -269 -808 0
-270 269 0
-270 808 0
271 -814 -268 0
-271 814 0
-271 268 0
272 -718 -10 0
-272 718 0
-272 10 0
273 -272 -815 0
-273 272 0
-273 815 0
274 -816 -271 0
-274 816 0
-274 271 0
275 -735 -13 0
-275 735 0
-275 13 0
276 -275 -761 0
-276 275 0
-276 761 0
277 -817 -274 0
-277 817 0
-277 274 0
278 -53 -44 0
-278 53 0
-278 44 0
279 -818 -277 0
-279 818 0
-279 277 0
280 -746 -17 0
-280 746 0
-280 17 0
281 -280 -745 0
-281 280 0
-281 745 0
282 -819 -279 0
-282 819 0
-282 279 0
283 -727 -699 0
-283 727 0
-283 699 0
284 -283 -15 0
-284 283 0
-284 15 0
285 -820 -282 0
-285 820 0
-285 282 0
286 -15 -727 0
-286 15 0
-286 727 0
287 -286 -46 0
-287 286 0
-287 46 0
288 -821 -285 0
-288 821 0
-288 285 0
289 -707 -3 0
-289 707 0
-289 3 0
290 -289 -7 0
-290 289 0
-290 7 0
291 -822 -288 0
-291 822 0
-291 288 0
292 -33 -11 0
-292 33 0
-292 11 0
293 -292 -9 0
-293 292 0
-293 9 0
294 -823 -291 0
-294 823 0
-294 291 0
295 -711 -14 0
-295 711 0
-295 14 0
296 -295 -9 0
-296 295 0
-296 9 0
297 -824 -294 0
-297 824 0
-297 294 0
298 -43 -782 0
-298 43 0
-298 782 0
299 -298 -808 0
-299 298 0
-299 808 0
300 -825 -297 0
-300 825 0
-300 297 0
301 -720 -14 0
-301 720 0
-301 14 0
302 -301 -32 0
-302 301 0
-302 32 0
303 -826 -300 0
-303 826 0
-303 300 0
304 -753 -787 0
-304 753 0
-304 787 0
305 -304 -7 0
-305 304 0
-305 7 0
306 -827 -303 0
-306 827 0
-306 303 0
307 -42 -8 0
-307 42 0
-307 8 0
308 -307 -35 0
-308 307 0
-308 35 0
309 -828 -306 0
-309 828 0
-309 306 0
310 -27 -713 0
-310 27 0
-310 713 0
311 -310 -708 0
-311 310 0
-311 708 0
312 -829 -309 0
-312 829 0
-312 309 0
313 -830 -26 0
-313 830 0
-313 26 0
314 -313 -40 0
-314 313 0
-314 40 0
315 -831 -312 0
-315 831 0
-315 312 0
316 -16 -12 0
-316 16 0
-316 12 0
317 -316 -745 0
-317 316 0
-317 745 0
318 -832 -315 0
-318 832 0
-318 315 0
319 -50 -773 0
-319 50 0
-319 773 0
320 -319 -787 0
-320 319 0
-320 787 0
321 -833 -318 0
-321 833 0
-321 318 0
322 -46 -756 0
-322 46 0
-322 756 0
323 -322 -25 0
-323 322 0
-323 25 0
324 -834 -321 0
-324 834 0
-324 321 0
325 -765 -710 0
-325 765 0
-325 710 0
326 -325 -721 0
-326 325 0
-326 721 0
327 -835 -324 0
-327 835 0
-327 324 0
328 -745 -20 0
-328 745 0
-328 20 0
329 -328 -720 0
-329 328 0
-329 720 0
330 -836 -327 0
-330 836 0
-330 327 0
331 -720 -2 0
-331 720 0
-331 2 0
332 -331 -8 0
-332 331 0
-332 8 0
333 -837 -330 0
-333 837 0
-333 330 0
334 -43 -716 0
-334 43 0
-334 716 0
335 -334 -718 0
-335 334 0
-335 718 0
336 -838 -333 0
-336 838 0
-336 333 0
337 -28 -714 0
-337 28 0
-337 714 0
338 -337 -839 0
-338 337 0
-338 839 0
339 -840 -336 0
-339 840 0
-339 336 0
340 -839 -787 0
-340 839 0
-340 787 0
341 -340 -750 0
-341 340 0
-341 750 0
342 -841 -339 0
-342 841 0
-342 339 0
343 -39 -720 0
-343 39 0
-343 720 0
344 -343 -8 0
-344 343 0
-344 8 0
345 -842 -342 0
-345 842 0
-345 342 0
346 -49 -12 0
-346 49 0
-346 12 0
347 -346 -23 0
-347 346 0
-347 23 0
348 -843 -345 0
-348 843 0
-348 345 0
349 -731 -12 0
-349 731 0
-349 12 0
350 -349 -33 0
-350 349 0
-350 33 0
351 -844 -348 0
-351 844 0
-351 348 0
352 -43 -796 0
-352 43 0
-352 796 0
353 -352 -15 0
-353 352 0
-353 15 0
354 -845 -351 0
-354 845 0
-354 351 0
355 -16 -4 0
-355 16 0
-355 4 0
356 -355 -721 0
-356 355 0
-356 721 0
357 -846 -354 0
-357 846 0
-357 354 0
358 -739 -3 0
-358 739 0
-358 3 0
359 -358 -7 0
-359 358 0
-359 7 0
360 -847 -357 0
-360 847 0
-360 357 0
361 -729 -14 0
-361 729 0
-361 14 0
362 -361 -779 0
-362 361 0
-362 779 0
363 -848 -360 0
-363 848 0
-363 360 0
364 -713 -10 0
-364 713 0
-364 10 0
365 -364 -9 0
-365 364 0
-365 9 0
366 -849 -363 0
-366 849 0
-366 363 0
367 -830 -17 0
-367 830 0
-367 17 0
368 -367 -743 0
-368 367 0
-368 743 0
369 -850 -366 0
-369 850 0
-369 366 0
370 -796 -22 0
-370 796 0
-370 22 0
371 -370 -729 0
-371 370 0
-371 729 0
372 -851 -369 0
-372 851 0
-372 369 0
373 -852 -28 0
-373 852 0
-373 28 0
374 -373 -740 0
-374 373 0
-374 740 0
375 -853 -372 0
-375 853 0
-375 372 0
376 -44 -716 0
-376 44 0
-376 716 0
377 -376 -741 0
-377 376 0
-377 741 0
378 -854 -375 0
-378 854 0
-378 375 0
379 -746 -710 0
-379 746 0
-379 710 0
380 -379 -7 0
-380 379 0
-380 7 0
381 -855 -378 0
-381 855 0
-381 378 0
382 -782 -713 0
-382 782 0
-382 713 0
383 -382 -740 0
-383 382 0
-383 740 0
384 -856 -381 0
-384 856 0
-384 381 0
385 -753 -19 0
-385 753 0
-385 19 0
386 -385 -702 0
-386 385 0
-386 702 0
387 -857 -384 0
-387 857 0
-387 384 0
388 -44 -735 0
-388 44 0
-388 735 0
389 -388 -731 0
-389 388 0
-389 731 0
390 -858 -387 0
-390 858 0
-390 387 0
391 -20 -10 0
-391 20 0
-391 10 0
392 -391 -765 0
-392 391 0
-392 765 0
393 -859 -390 0
-393 859 0
-393 390 0
394 -760 -707 0
-394 760 0
-394 707 0
395 -394 -804 0
-395 394 0
-395 804 0
396 -860 -393 0
-396 860 0
-396 393 0
397 -38 -12 0
-397 38 0
-397 12 0
398 -397 -23 0
-398 397 0
-398 23 0
399 -861 -396 0
-399 861 0
-399 396 0
400 -761 -711 0
-400 761 0
-400 711 0
401 -400 -42 0
-401 400 0
-401 42 0
402 -862 -399 0
-402 862 0
-402 399 0
403 -779 -48 0
-403 779 0
-403 48 0
404 -403 -39 0
-404 403 0
-404 39 0
405 -863 -402 0
-405 863 0
-405 402 0
406 -28 -12 0
-406 28 0
-406 12 0
407 -406 -47 0
-407 406 0
-407 47 0
408 -864 -405 0
-408 864 0
-408 405 0
409 -765 -716 0
-409 765 0
-409 716 0
410 -409 -11 0
-410 409 0
-410 11 0
411 -865 -408 0
-411 865 0
-411 408 0
412 -32 -711 0
-412 32 0
-412 711 0
413 -412 -702 0
-413 412 0
-413 702 0
414 -866 -411 0
-414 866 0
-414 411 0
415 -45 -753 0
-415 45 0
-415 753 0
416 -415 -737 0
-416 415 0
-416 737 0
417 -867 -414 0
-417 867 0
-417 414 0
418 -14 -727 0
-418 14 0
-418 727 0
419 -418 -710 0
-419 418 0
-419 710 0
420 -868 -417 0
-420 868 0
-420 417 0
421 -725 -699 0
-421 725 0
-421 699 0
422 -421 -740 0
-422 421 0
-422 740 0
423 -869 -420 0
-423 869 0
-423 420 0
424 -796 -723 0
-424 796 0
-424 723 0
425 -424 -39 0
-425 424 0
-425 39 0
426 -870 -423 0
-426 870 0
-426 423 0
427 -727 -7 0
-427 727 0
-427 7 0
428 -427 -702 0
-428 427 0
-428 702 0
429 -871 -426 0
-429 871 0
-429 426 0
430 -745 -714 0
-430 745 0
-430 714 0
431 -430 -761 0
-431 430 0
-431 761 0
432 -872 -429 0
-432 872 0
-432 429 0
433 -756 -36 0
-433 756 0
-433 36 0
434 -433 -31 0
-434 433 0
-434 31 0
435 -873 -432 0
-435 873 0
-435 432 0
436 -753 -713 0
-436 753 0
-436 713 0
437 -436 -697 0
-437 436 0
-437 697 0
438 -874 -435 0
-438 874 0
-438 435 0
439 -774 -796 0
-439 774 0
-439 796 0
440 -439 -9 0
-440 439 0
-440 9 0
441 -875 -438 0
-441 875 0
-441 438 0
442 -32 -15 0
-442 32 0
-442 15 0
443 -442 -741 0
-443 442 0
-443 741 0
444 -876 -441 0
-444 876 0
-444 441 0
445 -37 -698 0
-445 37 0
-445 698 0
446 -445 -708 0
-446 445 0
-446 708 0
447 -877 -444 0
-447 877 0
-447 444 0
448 -731 -25 0
-448 731 0
-448 25 0
449 -448 -721 0
-449 448 0
-449 721 0
450 -878 -447 0
-450 878 0
-450 447 0
451 -735 -31 0
-451 735 0
-451 31 0
452 -451 -30 0
-452 451 0
-452 30 0
453 -879 -450 0
-453 879 0
-453 450 0
454 -765 -3 0
-454 765 0
-454 3 0
455 -454 -747 0
-455 454 0
-455 747 0
456 -880 -453 0
-456 880 0
-456 453 0
457 -761 -13 0
-457 761 0
-457 13 0
458 -457 -753 0
-458 457 0
-458 753 0
459 -881 -456 0
-459 881 0
-459 456 0
460 -804 -750 0
-460 804 0
-460 750 0
461 -460 -721 0
-461 460 0
-461 721 0
462 -882 -459 0
-462 882 0
-462 459 0
463 -28 -711 0
-463 28 0
-463 711 0
464 -463 -743 0
-464 463 0
-464 743 0
465 -883 -462 0
-465 883 0
-465 462 0
466 -50 -714 0
-466 50 0
-466 714 0
467 -466 -750 0
-467 466 0
-467 750 0
468 -884 -465 0
-468 884 0
-468 465 0
469 -21 -13 0
-469 21 0
-469 13 0
470 -469 -750 0
-470 469 0
-470 750 0
471 -885 -468 0
-471 885 0
-471 468 0
472 -406 -731 0
-472 406 0
-472 731 0
473 -886 -471 0
-473 886 0
-473 471 0
474 -31 -19 0
-474 31 0
-474 19 0
475 -474 -804 0
-475 474 0
-475 804 0
476 -887 -473 0
-476 887 0
-476 473 0
477 -46 -12 0
-477 46 0
-477 12 0
478 -477 -815 0
-478 477 0
-478 815 0
479 -888 -476 0
-479 888 0
-479 476 0
480 -19 -8 0
-480 19 0
-480 8 0
481 -480 -25 0
-481 480 0
-481 25 0
482 -889 -479 0
-482 889 0
-482 479 0
483 -760 -18 0
-483 760 0
-483 18 0
484 -483 -761 0
-484 483 0
-484 761 0
485 -890 -482 0
-485 890 0
-485 482 0
486 -352 -787 0
-486 352 0
-486 787 0
487 -891 -485 0
-487 891 0
-487 485 0
488 -774 -6 0
-488 774 0
-488 6 0
489 -488 -30 0
-489 488 0
-489 30 0
490 -892 -487 0
-490 892 0
-490 487 0
491 -893 -30 0
-491 893 0
-491 30 0
492 -491 -839 0
-492 491 0
-492 839 0
493 -894 -490 0
-493 894 0
-493 490 0
494 -50 -796 0
-494 50 0
-494 796 0
495 -494 -727 0
-495 494 0
-495 727 0
496 -895 -493 0
-496 895 0
-496 493 0
497 -47 -10 0
-497 47 0
-497 10 0
498 -497 -40 0
-498 497 0
-498 40 0
499 -896 -496 0
-499 896 0
-499 496 0
500 -50 -17 0
-500 50 0
-500 17 0
501 -500 -32 0
-501 500 0
-501 32 0
502 -897 -499 0
-502 897 0
-502 499 0
503 -737 -704 0
-503 737 0
-503 704 0
504 -503 -35 0
-504 503 0
-504 35 0
505 -898 -502 0
-505 898 0
-505 502 0
506 -787 -8 0
-506 787 0
-506 8 0
507 -506 -804 0
-507 506 0
-507 804 0
508 -899 -505 0
-508 899 0
-508 505 0
509 -40 -18 0
-509 40 0
-509 18 0
510 -509 -8 0
-510 509 0
-510 8 0
511 -900 -508 0
-511 900 0
-511 508 0
512 -720 -710 0
-512 720 0
-512 710 0
513 -512 -9 0
-513 512 0
-513 9 0
514 -901 -511 0
-514 901 0
-514 511 0
515 -718 -702 0
-515 718 0
-515 702 0
516 -515 -35 0
-516 515 0
-516 35 0
517 -902 -514 0
-517 902 0
-517 514 0
518 -46 -5 0
-518 46 0
-518 5 0
519 -518 -21 0
-519 518 0
-519 21 0
520 -903 -517 0
-520 903 0
-520 517 0
521 -48 -739 0
-521 48 0
-521 739 0
522 -521 -741 0
-522 521 0
-522 741 0
523 -904 -520 0
-523 904 0
-523 520 0
524 -28 -2 0
-524 28 0
-524 2 0
525 -524 -8 0
-525 524 0
-525 8 0
526 -905 -523 0
-526 905 0
-526 523 0
527 -745 -723 0
-527 745 0
-527 723 0
528 -527 -42 0
-528 527 0
-528 42 0
529 -906 -526 0
-529 906 0
-529 526 0
530 -36 -26 0
-530 36 0
-530 26 0
531 -530 -18 0
-531 530 0
-531 18 0
532 -907 -529 0
-532 907 0
-532 529 0
533 -714 -708 0
-533 714 0
-533 708 0
534 -533 -11 0
-534 533 0
-534 11 0
535 -908 -532 0
-535 908 0
-535 532 0
536 -44 -41 0
-536 44 0
-536 41 0
537 -536 -42 0
-537 536 0
-537 42 0
538 -909 -535 0
-538 909 0
-538 535 0
539 -787 -720 0
-539 787 0
-539 720 0
540 -539 -35 0
-540 539 0
-540 35 0
541 -910 -538 0
-541 910 0
-541 538 0
542 -12 -4 0
-542 12 0
-542 4 0
543 -542 -45 0
-543 542 0
-543 45 0
544 -911 -541 0
-544 911 0
-544 541 0
545 -765 -17 0
-545 765 0
-545 17 0
546 -545 -702 0
-546 545 0
-546 702 0
547 -912 -544 0
-547 912 0
-547 544 0
548 -367 -741 0
-548 367 0
-548 741 0
549 -913 -547 0
-549 913 0
-549 547 0
550 -761 -12 0
-550 761 0
-550 12 0
551 -550 -753 0
-551 550 0
-551 753 0
552 -914 -549 0
-552 914 0
-552 549 0
553 -545 -1 0
-553 545 0
-553 1 0
554 -915 -552 0
-554 915 0
-554 552 0
555 -34 -10 0
-555 34 0
-555 10 0
556 -555 -760 0
-556 555 0
-556 760 0
557 -916 -554 0
-557 916 0
-557 554 0
558 -42 -33 0
-558 42 0
-558 33 0
559 -558 -25 0
-559 558 0
-559 25 0
560 -917 -557 0
-560 917 0
-560 557 0
561 -12 -705 0
-561 12 0
-561 705 0
562 -561 -8 0
-562 561 0
-562 8 0
563 -918 -560 0
-563 918 0
-563 560 0
564 -491 -33 0
-564 491 0
-564 33 0
565 -919 -563 0
-565 919 0
-565 563 0
566 -22 -713 0
-566 22 0
-566 713 0
567 -566 -21 0
-567 566 0
-567 21 0
568 -920 -565 0
-568 920 0
-568 565 0
569 -42 -14 0
-569 42 0
-569 14 0
570 -569 -25 0
-570 569 0
-570 25 0
571 -921 -568 0
-571 921 0
-571 568 0
572 -49 -699 0
-572 49 0
-572 699 0
573 -572 -720 0
-573 572 0
-573 720 0
574 -922 -571 0
-574 922 0
-574 571 0
575 -830 -727 0
-575 830 0
-575 727 0
576 -575 -15 0
-576 575 0
-576 15 0
577 -923 -574 0
-577 923 0
-577 574 0
578 -924 -18 0
-578 924 0
-578 18 0
579 -578 -893 0
-579 578 0
-579 893 0
580 -925 -577 0
-580 925 0
-580 577 0
581 -725 -713 0
-581 725 0
-581 713 0
582 -581 -8 0
-582 581 0
-582 8 0
583 -926 -580 0
-583 926 0
-583 580 0
584 -37 -23 0
-584 37 0
-584 23 0
585 -584 -35 0
-585 584 0
-585 35 0
586 -927 -583 0
-586 927 0
-586 583 0
587 -26 -716 0
-587 26 0
-587 716 0
588 -587 -45 0
-588 587 0
-588 45 0
589 -928 -586 0
-589 928 0
-589 586 0
590 -761 -773 0
-590 761 0
-590 773 0
591 -590 -32 0
-591 590 0
-591 32 0
592 -929 -589 0
-592 929 0
-592 589 0
593 -46 -716 0
-593 46 0
-593 716 0
594 -593 -35 0
-594 593 0
-594 35 0
595 -930 -592 0
-595 930 0
-595 592 0
596 -36 -7 0
-596 36 0
-596 7 0
597 -596 -9 0
-597 596 0
-597 9 0
598 -931 -595 0
-598 931 0
-598 595 0
599 -45 -36 0
-599 45 0
-599 36 0
600 -599 -8 0
-600 599 0
-600 8 0
601 -932 -598 0
-601 932 0
-601 598 0
602 -42 -4 0
-602 42 0
-602 4 0
603 -602 -743 0
-603 602 0
-603 743 0
604 -933 -601 0
-604 933 0
-604 601 0
605 -723 -711 0
-605 723 0
-605 711 0
606 -605 -41 0
-606 605 0
-606 41 0
607 -934 -604 0
-607 934 0
-607 604 0
608 -893 -37 0
-608 893 0
-608 37 0
609 -608 -23 0
-609 608 0
-609 23 0
610 -935 -607 0
-610 935 0
-610 607 0
611 -50 -5 0
-611 50 0
-611 5 0
612 -611 -8 0
-612 611 0
-612 8 0
613 -936 -610 0
-613 936 0
-613 610 0
614 -760 -2 0
-614 760 0
-614 2 0
615 -614 -9 0
-615 614 0
-615 9 0
616 -937 -613 0
-616 937 0
-616 613 0
617 -716 -699 0
-617 716 0
-617 699 0
618 -617 -839 0
-618 617 0
-618 839 0
619 -938 -616 0
-619 938 0
-619 616 0
620 -38 -20 0
-620 38 0
-620 20 0
621 -620 -718 0
-621 620 0
-621 718 0
622 -939 -619 0
-622 939 0
-622 619 0
623 -38 -729 0
-623 38 0
-623 729 0
624 -623 -18 0
-624 623 0
-624 18 0
625 -940 -622 0
-625 940 0
-625 622 0
626 -774 -2 0
-626 774 0
-626 2 0
627 -626 -7 0
-627 626 0
-627 7 0
628 -941 -625 0
-628 941 0
-628 625 0
629 -49 -44 0
-629 49 0
-629 44 0
630 -629 -745 0
-630 629 0
-630 745 0
631 -942 -628 0
-631 942 0
-631 628 0
632 -760 -11 0
-632 760 0
-632 11 0
633 -632 -697 0
-633 632 0
-633 697 0
634 -943 -631 0
-634 943 0
-634 631 0
635 -23 -711 0
-635 23 0
-635 711 0
636 -635 -2 0
-636 635 0
-636 2 0
637 -944 -634 0
-637 944 0
-637 634 0
638 -852 -37 0
-638 852 0
-638 37 0
639 -638 -3 0
-639 638 0
-639 3 0
640 -945 -637 0
-640 945 0
-640 637 0
641 -48 -11 0
-641 48 0
-641 11 0
642 -641 -33 0
-642 641 0
-642 33 0
643 -946 -640 0
-643 946 0
-643 640 0
644 -43 -27 0
-644 43 0
-644 27 0
645 -644 -47 0
-645 644 0
-645 47 0
646 -947 -643 0
-646 947 0
-646 643 0
647 -711 -707 0
-647 711 0
-647 707 0
648 -647 -787 0
-648 647 0
-648 787 0
649 -948 -646 0
-649 948 0
-649 646 0
650 -756 -20 0
-650 756 0
-650 20 0
651 -650 -44 0
-651 650 0
-651 44 0
652 -949 -649 0
-652 949 0
-652 649 0
653 -852 -708 0
-653 852 0
-653 708 0
654 -653 -743 0
-654 653 0
-654 743 0
655 -950 -652 0
-655 950 0
-655 652 0
656 -611 -779 0
-656 611 0
-656 779 0
657 -951 -655 0
-657 951 0
-657 655 0
658 -761 -9 0
-658 761 0
-658 9 0
659 -658 -35 0
-659 658 0
-659 35 0
660 -952 -657 0
-660 952 0
-660 657 0
661 -705 -815 0
-661 705 0
-661 815 0
662 -661 -741 0
-662 661 0
-662 741 0
663 -953 -660 0
-663 953 0
-663 660 0
664 -745 -13 0
-664 745 0
-664 13 0
665 -664 -46 0
-665 664 0
-665 46 0
666 -954 -663 0
-666 954 0
-666 663 0
667 -47 -44 0
-667 47 0
-667 44 0
668 -667 -39 0
-668 667 0
-668 39 0
669 -955 -666 0
-669 955 0
-669 666 0
670 -36 -720 0
-670 36 0
-670 720 0
671 -670 -1 0
-671 670 0
-671 1 0
672 -956 -669 0
-672 956 0
-672 669 0
673 -15 -708 0
-673 15 0
-673 708 0
674 -673 -774 0
-674 673 0
-674 774 0
675 -957 -672 0
-675 957 0
-675 672 0
676 -924 -705 0
-676 924 0
-676 705 0
677 -676 -11 0
-677 676 0
-677 11 0
678 -958 -675 0
-678 958 0
-678 675 0
679 -23 -14 0
-679 23 0
-679 14 0
680 -679 -765 0
-680 679 0
-680 765 0
681 -959 -678 0
-681 959 0
-681 678 0
682 -19 -711 0
-682 19 0
-682 711 0
683 -682 -765 0
-683 682 0
-683 765 0
684 -960 -681 0
-684 960 0
-684 681 0
685 -779 -4 0
-685 779 0
-685 4 0
686 -685 -765 0
-686 685 0
-686 765 0
687 -961 -684 0
-687 961 0
-687 684 0
688 -17 -737 0
-688 17 0
-688 737 0
689 -688 -8 0
-689 688 0
-689 8 0
690 -962 -687 0
-690 962 0
-690 687 0
691 -31 -708 0
-691 31 0
-691 708 0
692 -691 -40 0
-692 691 0
-692 40 0
693 -963 -690 0
-693 963 0
-693 690 0
694 -34 -22 0
-694 34 0
-694 22 0
695 -694 -893 0
-695 694 0
-695 893 0
696 -964 -693 0
-696 964 0
-696 693 0
-697 -1 0
697 1 0
-698 -4 0
698 4 0
-699 -6 0
699 6 0
-700 -54 0
700 54 0
-701 -52 0
701 52 0
-702 -8 0
702 8 0
-703 -57 0
703 57 0
-704 -10 0
704 10 0
-705 -5 0
705 5 0
-706 -60 0
706 60 0
-707 -12 0
707 12 0
-708 -14 0
708 14 0
-709 -63 0
709 63 0
-710 -16 0
710 16 0
-711 -15 0
711 15 0
-712 -66 0
712 66 0
-713 -17 0
713 17 0
-714 -19 0
714 19 0
-715 -69 0
715 69 0
-716 -20 0
716 20 0
-717 -72 0
717 72 0
-718 -21 0
718 21 0
-719 -75 0
719 75 0
-720 -23 0
720 23 0
-721 -9 0
721 9 0
-722 -78 0
722 78 0
-723 -24 0
723 24 0
-724 -81 0
724 81 0
-725 -26 0
725 26 0
-726 -84 0
726 84 0
-727 -13 0
727 13 0
-728 -87 0
728 87 0
-729 -29 0
729 29 0
-730 -90 0
730 90 0
-731 -30 0
731 30 0
-732 -93 0
732 93 0
-733 -96 0
733 96 0
-734 -99 0
734 99 0
-735 -34 0
735 34 0
-736 -102 0
736 102 0
-737 -11 0
737 11 0
-738 -105 0
738 105 0
-739 -38 0
739 38 0
-740 -37 0
740 37 0
-741 -33 0
741 33 0
-742 -108 0
742 108 0
-743 -32 0
743 32 0
-744 -111 0
744 111 0
-745 -40 0
745 40 0
-746 -18 0
746 18 0
-747 -35 0
747 35 0
-748 -114 0
748 114 0
-749 -117 0
749 117 0
-750 -2 0
750 2 0
-751 -120 0
751 120 0
-752 -123 0
752 123 0
-753 -42 0
753 42 0
-754 -126 0
754 126 0
-755 -129 0
755 129 0
-756 -45 0
756 45 0
-757 -132 0
757 132 0
-758 -135 0
758 135 0
-759 -138 0
759 138 0
-760 -47 0
760 47 0
-761 -41 0
761 41 0
-762 -141 0
762 141 0
-763 -144 0
763 144 0
-764 -147 0
764 147 0
-765 -46 0
765 46 0
-766 -150 0
766 150 0
-767 -153 0
767 153 0
-768 -156 0
768 156 0
-769 -159 0
769 159 0
-770 -162 0
770 162 0
-771 -165 0
771 165 0
-772 -168 0
772 168 0
-773 -27 0
773 27 0
-774 -48 0
774 48 0
-775 -171 0
775 171 0
-776 -174 0
776 174 0
-777 -177 0
777 177 0
-778 -180 0
778 180 0
-779 -49 0
779 49 0
-780 -183 0
780 183 0
-781 -186 0
781 186 0
-782 -22 0
782 22 0
-783 -189 0
783 189 0
-784 -192 0
784 192 0
-785 -195 0
785 195 0
-786 -198 0
786 198 0
-787 -31 0
787 31 0
-788 -201 0
788 201 0
-789 -204 0
789 204 0
-790 -207 0
790 207 0
-791 -210 0
791 210 0
-792 -213 0
792 213 0
-793 -216 0
793 216 0
-794 -219 0
794 219 0
-795 -222 0
795 222 0
-796 -36 0
796 36 0
-797 -225 0
797 225 0
-798 -228 0
798 228 0
-799 -231 0
799 231 0
-800 -234 0
800 234 0
-801 -237 0
801 237 0
-802 -240 0
802 240 0
-803 -243 0
803 243 0
-804 -25 0
804 25 0
-805 -246 0
805 246 0
-806 -249 0
806 249 0
-807 -252 0
807 252 0
-808 -7 0
808 7 0
-809 -255 0
809 255 0
-810 -258 0
810 258 0
-811 -261 0
811 261 0
-812 -264 0
812 264 0
-813 -267 0
813 267 0
-814 -270 0
814 270 0
-815 -3 0
815 3 0
-816 -273 0
816 273 0
-817 -276 0
817 276 0
-818 -278 0
818 278 0
-819 -281 0
819 281 0
-820 -284 0
820 284 0
-821 -287 0
821 287 0
-822 -290 0
822 290 0
-823 -293 0
823 293 0
-824 -296 0
824 296 0
-825 -299 0
825 299 0
-826 -302 0
826 302 0
-827 -305 0
827 305 0
-828 -308 0
828 308 0
-829 -311 0
829 311 0
-830 -28 0
830 28 0
-831 -314 0
831 314 0
-832 -317 0
832 317 0
-833 -320 0
833 320 0
-834 -323 0
834 323 0
-835 -326 0
835 326 0
-836 -329 0
836 329 0
-837 -332 0
837 332 0
-838 -335 0
838 335 0
-839 -39 0
839 39 0
-840 -338 0
840 338 0
-841 -341 0
841 341 0
-842 -344 0
842 344 0
-843 -347 0
843 347 0
-844 -350 0
844 350 0
-845 -353 0
845 353 0
-846 -356 0
846 356 0
-847 -359 0
847 359 0
-848 -362 0
848 362 0
-849 -365 0
849 365 0
-850 -368 0
850 368 0
-851 -371 0
851 371 0
-852 -43 0
852 43 0
-853 -374 0
853 374 0
-854 -377 0
854 377 0
-855 -380 0
855 380 0
-856 -383 0
856 383 0
-857 -386 0
857 386 0
-858 -389 0
858 389 0
-859 -392 0
859 392 0
-860 -395 0
860 395 0
-861 -398 0
861 398 0
-862 -401 0
862 401 0
-863 -404 0
863 404 0
-864 -407 0
864 407 0
-865 -410 0
865 410 0
-866 -413 0
866 413 0
-867 -416 0
867 416 0
-868 -419 0
868 419 0
-869 -422 0
869 422 0
-870 -425 0
870 425 0
-871 -428 0
871 428 0
-872 -431 0
872 431 0
-873 -434 0
873 434 0
-874 -437 0
874 437 0
-875 -440 0
875 440 0
-876 -443 0
876 443 0
-877 -446 0
877 446 0
-878 -449 0
878 449 0
-879 -452 0
879 452 0
-880 -455 0
880 455 0
-881 -458 0
881 458 0
-882 -461 0
882 461 0
-883 -464 0
883 464 0
-884 -467 0
884 467 0
-885 -470 0
885 470 0
-886 -472 0
886 472 0
-887 -475 0
887 475 0
-888 -478 0
888 478 0
-889 -481 0
889 481 0
-890 -484 0
890 484 0
-891 -486 0
891 486 0
-892 -489 0
892 489 0
-893 -44 0
893 44 0
-894 -492 0
894 492 0
-895 -495 0
895 495 0
-896 -498 0
896 498 0
-897 -501 0
897 501 0
-898 -504 0
898 504 0
-899 -507 0
899 507 0
-900 -510 0
900 510 0
-901 -513 0
901 513 0
-902 -516 0
902 516 0
-903 -519 0
903 519 0
-904 -522 0
904 522 0
-905 -525 0
905 525 0
-906 -528 0
906 528 0
-907 -531 0
907 531 0
-908 -534 0
908 534 0
-909 -537 0
909 537 0
-910 -540 0
910 540 0
-911 -543 0
911 543 0
-912 -546 0
912 546 0
-913 -548 0
913 548 0
-914 -551 0
914 551 0
-915 -553 0
915 553 0
-916 -556 0
916 556 0
-917 -559 0
917 559 0
-918 -562 0
918 562 0
-919 -564 0
919 564 0
-920 -567 0
920 567 0
-921 -570 0
921 570 0
-922 -573 0
922 573 0
-923 -576 0
923 576 0
-924 -50 0
924 50 0
-925 -579 0
925 579 0
-926 -582 0
926 582 0
-927 -585 0
927 585 0
-928 -588 0
928 588 0
-929 -591 0
929 591 0
-930 -594 0
930 594 0
-931 -597 0
931 597 0
-932 -600 0
932 600 0
-933 -603 0
933 603 0
-934 -606 0
934 606 0
-935 -609 0
935 609 0
-936 -612 0
936 612 0
-937 -615 0
937 615 0
-938 -618 0
938 618 0
-939 -621 0
939 621 0
-940 -624 0
940 624 0
-941 -627 0
941 627 0
-942 -630 0
942 630 0
-943 -633 0
943 633 0
-944 -636 0
944 636 0
-945 -639 0
945 639 0
-946 -642 0
946 642 0
-947 -645 0
947 645 0
-948 -648 0
948 648 0
-949 -651 0
949 651 0
-950 -654 0
950 654 0
-951 -656 0
951 656 0
-952 -659 0
952 659 0
-953 -662 0
953 662 0
-954 -665 0
954 665 0
-955 -668 0
955 668 0
-956 -671 0
956 671 0
-957 -674 0
957 674 0
-958 -677 0
958 677 0
-959 -680 0
959 680 0
-960 -683 0
960 683 0
-961 -686 0
961 686 0
-962 -689 0
962 689 0
-963 -692 0
963 692 0
-964 -695 0
964 695 0
696 0
